c Grid graph 3x12
p edge 36 57
e 1 2
e 1 13
e 2 3
e 2 14
e 3 4
e 3 15
e 4 5
e 4 16
e 5 6
e 5 17
e 6 7
e 6 18
e 7 8
e 7 19
e 8 9
e 8 20
e 9 10
e 9 21
e 10 11
e 10 22
e 11 12
e 11 23
e 12 24
e 13 14
e 13 25
e 14 15
e 14 26
e 15 16
e 15 27
e 16 17
e 16 28
e 17 18
e 17 29
e 18 19
e 18 30
e 19 20
e 19 31
e 20 21
e 20 32
e 21 22
e 21 33
e 22 23
e 22 34
e 23 24
e 23 35
e 24 36
e 25 26
e 26 27
e 27 28
e 28 29
e 29 30
e 30 31
e 31 32
e 32 33
e 33 34
e 34 35
e 35 36
